# Variable definitions

variable	project		index	"nve"	    # project name
variable    dataname    index   "chain"     # data file name
variable    paramsname  index   "water"     # params file name
variable	temperature	index	300		    # system temperature
variable	tdamp		index	100.0	    # temperature damping
variable	dielectric	index	1		    # medium dielectric
variable	kappa		index	4		    # electrostatics kappa
variable	cutoff		index	9.5		    # standard cutoff
variable	charge_cutoff	index	9.5		# charge cutoff
variable	precision	index	0.001		# kspace precision
variable	lseed		index	723853		# langevin seed
variable	vseed		index	1486234		# velocity init seed
variable	tequil		index	1000		# equilibration time
variable	trun		index	100000	    # run time
variable	dtdump		index	1000		# delta dump time
variable	dtthermo	index	1000		# delta thermo time
variable	timestep	index	2		    # integration time step

# LAMMPS atomistic input script

echo		screen
units		real
atom_style	full

# Interaction potential definition

pair_style	lj/cut/coul/long ${cutoff} ${charge_cutoff}
bond_style	harmonic
special_bonds	lj/coul 0 0 0.5

read_data   ${dataname}.data
include		${paramsname}.params

# Integration conditions (check)

timestep	${timestep}
kspace_style	pppm/cg ${precision}
dielectric	${dielectric}
fix		mom all momentum 100 linear 1 1 1 angular

# Equilibration

thermo		${dtthermo}
velocity	all create ${temperature} ${vseed} &
		dist gaussian rot yes mom yes sum yes
fix		temp all langevin ${temperature} ${temperature} ${tdamp} &
		${lseed}
fix		int all nve/limit 0.1
run		${tequil}
unfix		temp
unfix		int
write_restart	${project}.restart2

# Simulation

fix		temp all langevin ${temperature} ${temperature} ${tdamp} &
		${lseed}
fix		int all nve

# Run conditions

restart		${dtrestart} ${project}.restart1 ${project}.restart2
dump		1 all custom ${dtdump} ${project}.dump id type x y z
run		${trun}
